[runlim] version:		1.10
[runlim] time limit:		311040000 seconds
[runlim] real time limit:	600 seconds
[runlim] space limit:		14000 MB
[runlim] argv[0]:		python3
[runlim] argv[1]:		cp.py
[runlim] argv[2]:		graph06
[runlim] start:			Sun Jan 25 07:48:42 2026
[runlim] main pid:		10665
Building CP model...
Solving CP Optimizer...
 ! --------------------------------------------------- CP Optimizer 22.1.1.0 --
 ! Minimization problem - 9686 variables, 367971 constraints
 ! LogVerbosity         = Terse
 ! Initial process time : 0.43s (0.41s extraction + 0.03s propagation)
 !  . Log search space  : 9668.0 (before), 9668.0 (after)
 !  . Memory usage      : 9.0 MB (before), 9.0 MB (after)
 ! Using parallel search with 12 workers.
 ! ----------------------------------------------------------------------------
 !          Best Branches  Non-fixed    W       Branch decision
                        0       9686                 -
 + New bound is 0
 ! ----------------------------------------------------------------------------
 ! Search completed, model has no solution.
 ! Best bound             : 0
 ! ----------------------------------------------------------------------------
 ! Number of branches     : 0
 ! Number of fails        : 0
 ! Total memory usage     : 307.3 MB (305.0 MB CP Optimizer + 2.3 MB Concert)
 ! Time spent in solve    : 0.45s (0.05s engine + 0.41s extraction)
 ! ----------------------------------------------------------------------------
No valid solution: Infeasible
[runlim] end:			Sun Jan 25 07:48:50 2026
[runlim] status:		ok
[runlim] result:		0
[runlim] children:		46
[runlim] real:			8.13 seconds
[runlim] time:			7.32 seconds
[runlim] space:			745.2 MB
[runlim] samples:		78
